seed= 2052018 ;
N= 10 ;
M= 2 ;
F= 2 ;
K= 4 ;
T= 66 ;

p=[ 20 20 20 20 20 2 2 2 2 2 ];
r=[ 4 6 3 5 6 1 1 3 4 1 ];
d=[ 5 11 5 7 17 0 7 11 11 3 ];
s=[ 1 1 1 1 1 1 1 1 1 1 ];
w=[ 5 3 2 3 1 3 2 2 1 2 ];
f=[ 1 1 1 1 1 2 2 2 2 2 ];

e1=[ 10 10 10 10 10 10 10 10 10 10 10 10 10 10 10 10 10 10 10 10 10 10 10 10 10 10 10 10 10 10 10 10 10 8 8 8 8 8 8 8 8 8 8 8 8 8 8 8 8 8 8 8 8 8 8 8 8 8 8 8 8 8 8 8 8 8 ];
e2=[ 10 10 10 10 10 10 10 10 10 10 10 10 10 10 10 10 10 10 10 10 10 10 9 9 9 9 9 9 9 9 9 9 9 8 8 8 8 8 8 8 8 8 8 8 8 8 8 8 8 8 8 8 8 8 8 9 9 9 9 9 9 9 9 9 9 9 ];